p cnf 15 61
11 12 13 14 15 0
21 22 23 24 25 0
31 32 33 34 35 0

-11 -21 0
-11 -31 0
-21 -31 0
-12 -22 0
-12 -32 0
-22 -32 0
-13 -23 0
-13 -33 0
-23 -33 0
-14 -24 0
-14 -34 0
-24 -34 0
-15 -25 0
-15 -35 0
-25 -35 0

-11 -12 0
-11 -13 0
-11 -14 0
-11 -15 0
-12 -13 0
-12 -14 0
-12 -15 0
-13 -14 0
-13 -15 0
-14 -15 0
-21 -22 0
-21 -23 0
-21 -24 0
-21 -25 0
-22 -23 0
-22 -24 0
-22 -25 0
-23 -24 0
-23 -25 0
-24 -25 0
-31 -32 0
-31 -33 0
-31 -34 0
-31 -35 0
-32 -33 0
-32 -34 0
-32 -35 0
-33 -34 0
-33 -35 0
-34 -35 0

-11 -22 0
-11 -32 0
-21 -12 0
-21 -32 0
-31 -12 0
-31 -22 0

-12 -25 0
-12 -35 0
-22 -15 0
-22 -35 0
-32 -15 0
-32 -25 0

-13 -24 0
-13 -34 0
-23 -14 0
-23 -34 0
-33 -14 0
-33 -24 0

